p cnf 707
-11 -221
-12 -224
-13 -227
-14 -230
-15 -233
-16 -236
-17 -239
-18 -242
-19 -245
-20 -248
-21 249
-22 250
-23 251
-24 252
-25 253
-26 254
-27 -12
-27 -13
12 13 27
-28 -14
-28 -15
14 15 28
-29 -16
-29 -17
16 17 29
-30 -18
-30 -19
18 19 30
-31 -20
-31 -21
20 21 31
-32 -22
-32 -23
22 23 32
-33 -24
-33 -25
24 25 33
-34 27
-34 28
-27 -28 34
-35 29
-35 30
-29 -30 35
-36 31
-36 32
-31 -32 36
-37 -26
-37 33
26 -33 37
-38 34
-38 35
-34 -35 38
-39 36
-39 37
-36 -37 39
-40 38
-40 39
-38 -39 40
-41 -11
-41 12
11 -12 41
-42 11
-42 -12
-11 12 42
-43 -41
-43 -42
41 42 43
-44 11
-44 12
-11 -12 44
-45 -11
-45 -43
11 43 45
-46 11
-46 43
-11 -43 46
-47 -45
-47 -46
45 46 47
-48 11
-48 -43
-11 43 48
-49 -44
-49 -48
44 48 49
-50 -12
-50 13
12 -13 50
-51 12
-51 -13
-12 13 51
-52 -50
-52 -51
50 51 52
-53 12
-53 13
-12 -13 53
-54 49
-54 -52
-49 52 54
-55 -49
-55 52
49 -52 55
-56 -54
-56 -55
54 55 56
-57 -49
-57 -52
49 52 57
-58 -53
-58 -57
53 57 58
-59 -13
-59 14
13 -14 59
-60 13
-60 -14
-13 14 60
-61 -59
-61 -60
59 60 61
-62 13
-62 14
-13 -14 62
-63 58
-63 -61
-58 61 63
-64 -58
-64 61
58 -61 64
-65 -63
-65 -64
63 64 65
-66 -58
-66 -61
58 61 66
-67 -62
-67 -66
62 66 67
-68 -14
-68 15
14 -15 68
-69 14
-69 -15
-14 15 69
-70 -68
-70 -69
68 69 70
-71 14
-71 15
-14 -15 71
-72 67
-72 -70
-67 70 72
-73 -67
-73 70
67 -70 73
-74 -72
-74 -73
72 73 74
-75 -67
-75 -70
67 70 75
-76 -71
-76 -75
71 75 76
-77 -15
-77 16
15 -16 77
-78 15
-78 -16
-15 16 78
-79 -77
-79 -78
77 78 79
-80 15
-80 16
-15 -16 80
-81 76
-81 -79
-76 79 81
-82 -76
-82 79
76 -79 82
-83 -81
-83 -82
81 82 83
-84 -76
-84 -79
76 79 84
-85 -80
-85 -84
80 84 85
-86 -16
-86 17
16 -17 86
-87 16
-87 -17
-16 17 87
-88 -86
-88 -87
86 87 88
-89 16
-89 17
-16 -17 89
-90 85
-90 -88
-85 88 90
-91 -85
-91 88
85 -88 91
-92 -90
-92 -91
90 91 92
-93 -85
-93 -88
85 88 93
-94 -89
-94 -93
89 93 94
-95 -17
-95 18
17 -18 95
-96 17
-96 -18
-17 18 96
-97 -95
-97 -96
95 96 97
-98 17
-98 18
-17 -18 98
-99 94
-99 -97
-94 97 99
-100 -94
-100 97
94 -97 100
-101 -99
-101 -100
99 100 101
-102 -94
-102 -97
94 97 102
-103 -98
-103 -102
98 102 103
-104 -18
-104 19
18 -19 104
-105 18
-105 -19
-18 19 105
-106 -104
-106 -105
104 105 106
-107 18
-107 19
-18 -19 107
-108 103
-108 -106
-103 106 108
-109 -103
-109 106
103 -106 109
-110 -108
-110 -109
108 109 110
-111 -103
-111 -106
103 106 111
-112 -107
-112 -111
107 111 112
-113 -19
-113 20
19 -20 113
-114 19
-114 -20
-19 20 114
-115 -113
-115 -114
113 114 115
-116 19
-116 20
-19 -20 116
-117 112
-117 -115
-112 115 117
-118 -112
-118 115
112 -115 118
-119 -117
-119 -118
117 118 119
-120 -112
-120 -115
112 115 120
-121 -116
-121 -120
116 120 121
-122 -20
-122 21
20 -21 122
-123 20
-123 -21
-20 21 123
-124 -122
-124 -123
122 123 124
-125 20
-125 21
-20 -21 125
-126 121
-126 -124
-121 124 126
-127 -121
-127 124
121 -124 127
-128 -126
-128 -127
126 127 128
-129 -121
-129 -124
121 124 129
-130 -125
-130 -129
125 129 130
-131 -21
-131 22
21 -22 131
-132 21
-132 -22
-21 22 132
-133 -131
-133 -132
131 132 133
-134 21
-134 22
-21 -22 134
-135 130
-135 -133
-130 133 135
-136 -130
-136 133
130 -133 136
-137 -135
-137 -136
135 136 137
-138 -130
-138 -133
130 133 138
-139 -134
-139 -138
134 138 139
-140 -22
-140 23
22 -23 140
-141 22
-141 -23
-22 23 141
-142 -140
-142 -141
140 141 142
-143 22
-143 23
-22 -23 143
-144 139
-144 -142
-139 142 144
-145 -139
-145 142
139 -142 145
-146 -144
-146 -145
144 145 146
-147 -139
-147 -142
139 142 147
-148 -143
-148 -147
143 147 148
-149 -23
-149 24
23 -24 149
-150 23
-150 -24
-23 24 150
-151 -149
-151 -150
149 150 151
-152 23
-152 24
-23 -24 152
-153 148
-153 -151
-148 151 153
-154 -148
-154 151
148 -151 154
-155 -153
-155 -154
153 154 155
-156 -148
-156 -151
148 151 156
-157 -152
-157 -156
152 156 157
-158 -24
-158 25
24 -25 158
-159 24
-159 -25
-24 25 159
-160 -158
-160 -159
158 159 160
-161 24
-161 25
-24 -25 161
-162 157
-162 -160
-157 160 162
-163 -157
-163 160
157 -160 163
-164 -162
-164 -163
162 163 164
-165 -157
-165 -160
157 160 165
-166 -161
-166 -165
161 165 166
-167 -25
-167 26
25 -26 167
-168 25
-168 -26
-25 26 168
-169 -167
-169 -168
167 168 169
-170 25
-170 26
-25 -26 170
-171 166
-171 -169
-166 169 171
-172 -166
-172 169
166 -169 172
-173 -171
-173 -172
171 172 173
-174 -166
-174 -169
166 169 174
-175 -170
-175 -174
170 174 175
-176 11
-176 -47
-11 47 176
-177 -11
-177 13
11 -13 177
-178 -176
-178 -177
176 177 178
-179 11
-179 -56
-11 56 179
-180 -11
-180 14
11 -14 180
-181 -179
-181 -180
179 180 181
-182 11
-182 -65
-11 65 182
-183 -11
-183 15
11 -15 183
-184 -182
-184 -183
182 183 184
-185 11
-185 -74
-11 74 185
-186 -11
-186 16
11 -16 186
-187 -185
-187 -186
185 186 187
-188 11
-188 -83
-11 83 188
-189 -11
-189 17
11 -17 189
-190 -188
-190 -189
188 189 190
-191 11
-191 -92
-11 92 191
-192 -11
-192 18
11 -18 192
-193 -191
-193 -192
191 192 193
-194 11
-194 -101
-11 101 194
-195 -11
-195 19
11 -19 195
-196 -194
-196 -195
194 195 196
-197 11
-197 -110
-11 110 197
-198 -11
-198 20
11 -20 198
-199 -197
-199 -198
197 198 199
-200 11
-200 -119
-11 119 200
-201 -11
-201 21
11 -21 201
-202 -200
-202 -201
200 201 202
-203 11
-203 -128
-11 128 203
-204 -11
-204 22
11 -22 204
-205 -203
-205 -204
203 204 205
-206 11
-206 -137
-11 137 206
-207 -11
-207 23
11 -23 207
-208 -206
-208 -207
206 207 208
-209 11
-209 -146
-11 146 209
-210 -11
-210 24
11 -24 210
-211 -209
-211 -210
209 210 211
-212 11
-212 -155
-11 155 212
-213 -11
-213 25
11 -25 213
-214 -212
-214 -213
212 213 214
-215 11
-215 -164
-11 164 215
-216 -11
-216 26
11 -26 216
-217 -215
-217 -216
215 216 217
-218 11
-218 -173
-11 173 218
-219 1
-219 40
-1 -40 219
-220 -40
-220 41
40 -41 220
-221 -219
-221 -220
219 220 221
-222 2
-222 40
-2 -40 222
-223 -40
-223 -178
40 178 223
-224 -222
-224 -223
222 223 224
-225 3
-225 40
-3 -40 225
-226 -40
-226 -181
40 181 226
-227 -225
-227 -226
225 226 227
-228 4
-228 40
-4 -40 228
-229 -40
-229 -184
40 184 229
-230 -228
-230 -229
228 229 230
-231 5
-231 40
-5 -40 231
-232 -40
-232 -187
40 187 232
-233 -231
-233 -232
231 232 233
-234 6
-234 40
-6 -40 234
-235 -40
-235 -190
40 190 235
-236 -234
-236 -235
234 235 236
-237 7
-237 40
-7 -40 237
-238 -40
-238 -193
40 193 238
-239 -237
-239 -238
237 238 239
-240 8
-240 40
-8 -40 240
-241 -40
-241 -196
40 196 241
-242 -240
-242 -241
240 241 242
-243 9
-243 40
-9 -40 243
-244 -40
-244 -199
40 199 244
-245 -243
-245 -244
243 244 245
-246 10
-246 40
-10 -40 246
-247 -40
-247 -202
40 202 247
-248 -246
-248 -247
246 247 248
-249 -40
-249 -205
40 205 249
-250 -40
-250 -208
40 208 250
-251 -40
-251 -211
40 211 251
-252 -40
-252 -214
40 214 252
-253 -40
-253 -217
40 217 253
-254 -40
-254 218
40 -218 254
-255 -26
-255 175
26 -175 255
-256 11
-256 -255
-11 255 256
256
